
Gurobi 11.0.3 (linux64) logging started Fri Nov 22 05:28:58 2024

Set parameter LogFile to value "/home/yihong/Coding/OR_SUC/SUC_results_bigM100000_thread4/case24_ieee_rts_theta0.1_epsilon0.05_gurobi_seed710000_num_gen100_N_WDR100_load_scaling_factor1_exact_T12quadra_cost.txt"
Set parameter TimeLimit to value 3600
Gurobi Optimizer version 11.0.3 build v11.0.3rc0 (linux64 - "Ubuntu 20.04.6 LTS")

CPU model: AMD EPYC 7532 32-Core Processor, instruction set [SSE2|AVX|AVX2]
Thread count: 64 physical cores, 128 logical processors, using up to 4 threads

Optimize a model with 28631 rows, 15081 columns and 662130 nonzeros
Model fingerprint: 0x001385ca
Model has 1200 quadratic constraints
Variable types: 13781 continuous, 1300 integer (1300 binary)
Coefficient statistics:
  Matrix range     [3e-04, 1e+05]
  QMatrix range    [2e-03, 8e-03]
  QLMatrix range   [2e-01, 6e+01]
  Objective range  [1e+00, 1e+00]
  Bounds range     [1e+00, 1e+00]
  RHS range        [1e+00, 1e+05]
Presolve removed 23602 rows and 6561 columns
Presolve time: 0.15s
Presolved: 5029 rows, 8520 columns, 29039 nonzeros
Presolved model has 1200 quadratic constraint(s)
Variable types: 7250 continuous, 1270 integer (1270 binary)

Root relaxation: objective 1.343266e+04, 4105 iterations, 0.09 seconds (0.13 work units)

    Nodes    |    Current Node    |     Objective Bounds      |     Work
 Expl Unexpl |  Obj  Depth IntInf | Incumbent    BestBd   Gap | It/Node Time

     0     0 13432.6589    0   23          - 13432.6589      -     -    0s
     0     0 54898.4119    0  559          - 54898.4119      -     -    0s
     0     0 55014.8021    0  555          - 55014.8021      -     -    0s
     0     0 218554.933    0  461          - 218554.933      -     -    0s
     0     0 220642.409    0  364          - 220642.409      -     -    0s
     0     0 221151.111    0  210          - 221151.111      -     -    0s
     0     0 221193.801    0  205          - 221193.801      -     -    0s
     0     0 221342.056    0  195          - 221342.056      -     -    0s
     0     0 221343.209    0  195          - 221343.209      -     -    0s
     0     2 221343.209    0  195          - 221343.209      -     -    1s
H  568   317                    221619.55213 221426.571  0.09%   8.9    2s
*  568   317             145    221619.55213 221426.571  0.09%   8.9    2s

Cutting planes:
  Gomory: 2
  Implied bound: 419
  MIR: 80
  Flow cover: 126
  RLT: 7

Explored 636 nodes (18417 simplex iterations) in 2.80 seconds (3.40 work units)
Thread count was 4 (of 128 available processors)

Solution count 2: 221620 221620 

Optimal solution found (tolerance 1.00e-03)
Warning: max constraint violation (7.4197e-08) exceeds tolerance
Best objective 2.216195521360e+05, best bound 2.214269478661e+05, gap 0.0869%
